NAME: random-54-15909
TYPE: TSP
COMMENT: size=54 seed=15909
DIMENSION: 110
EDGE_WEIGHT_TYPE: EUC_2D
NODE_COORD_SECTION
+0 563 817
-0 563 817
+1 45 747
-1 540 502
+2 525 591
-2 613 824
+3 535 328
-3 233 958
+4 224 727
-4 507 547
+5 700 146
-5 91 819
+6 773 943
-6 430 961
+7 898 230
-7 319 959
+8 183 218
-8 920 410
+9 503 90
-9 709 925
+10 293 591
-10 325 129
+11 710 273
-11 196 841
+12 660 39
-12 391 877
+13 618 765
-13 607 154
+14 936 4
-14 562 766
+15 674 572
-15 230 291
+16 797 251
-16 695 251
+17 433 166
-17 527 912
+18 239 378
-18 16 890
+19 677 212
-19 567 430
+20 192 328
-20 717 465
+21 589 550
-21 781 856
+22 659 890
-22 169 976
+23 197 983
-23 180 168
+24 759 944
-24 394 520
+25 500 105
-25 596 113
+26 618 604
-26 938 198
+27 452 26
-27 475 91
+28 371 85
-28 35 670
+29 51 243
-29 522 630
+30 131 217
-30 537 542
+31 786 988
-31 830 818
+32 35 461
-32 461 454
+33 561 635
-33 564 593
+34 105 699
-34 312 565
+35 274 626
-35 833 481
+36 923 669
-36 128 269
+37 398 617
-37 394 452
+38 120 452
-38 220 590
+39 996 920
-39 462 462
+40 333 341
-40 146 179
+41 545 878
-41 85 623
+42 463 437
-42 145 563
+43 465 582
-43 86 946
+44 775 128
-44 334 602
+45 645 88
-45 5 117
+46 74 637
-46 147 845
+47 894 115
-47 337 209
+48 618 853
-48 597 15
+49 833 297
-49 328 528
+50 676 518
-50 74 563
+51 354 341
-51 616 949
+52 806 731
-52 99 808
+53 925 867
-53 395 704
+54 986 413
-54 796 84
PRECEDENCE_SECTION
+0 -0
+1 -1
+2 -2
+3 -3
+4 -4
+5 -5
+6 -6
+7 -7
+8 -8
+9 -9
+10 -10
+11 -11
+12 -12
+13 -13
+14 -14
+15 -15
+16 -16
+17 -17
+18 -18
+19 -19
+20 -20
+21 -21
+22 -22
+23 -23
+24 -24
+25 -25
+26 -26
+27 -27
+28 -28
+29 -29
+30 -30
+31 -31
+32 -32
+33 -33
+34 -34
+35 -35
+36 -36
+37 -37
+38 -38
+39 -39
+40 -40
+41 -41
+42 -42
+43 -43
+44 -44
+45 -45
+46 -46
+47 -47
+48 -48
+49 -49
+50 -50
+51 -51
+52 -52
+53 -53
+54 -54
EOF
